70 5523463
10 23 37 11 64 43 44 16 36 29 68 51 13 66 12 7 54 41 4 50 6 18 14 57 17 27 63 52 39 30 61 9 45 24 53 22 56 35 46 1 25 34 26 67 40 47 59 3 31 48 28 19 65 8 38 32 69 42 49 15 58 5 62 33 60 2 21 20 70 55 
